6
Coordinates from ORCA-job 82_Waterdimer_B3LYP_3-21G_opt E -151.892658421964
  O      -1.551007     -0.114520      0.000000
  H      -1.934259      0.762503      0.000000
  H      -0.599677      0.040712      0.000000
  O       1.350625      0.111469      0.000000
  H       1.680398     -0.373741     -0.758561
  H       1.680398     -0.373741      0.758561
6
Coordinates from ORCA-job 82_Waterdimer_B3LYP_3-21G_opt E -151.897810772931
  O      -1.538021     -0.125591     -0.000000
  H      -1.957973      0.773266      0.000000
  H      -0.555682      0.044056     -0.000000
  O       1.334887      0.118215      0.000000
  H       1.671633     -0.378632     -0.788241
  H       1.671633     -0.378632      0.788241
6
Coordinates from ORCA-job 82_Waterdimer_B3LYP_3-21G_opt E -151.898633648972
  O      -1.493718     -0.136208     -0.000000
  H      -1.914855      0.766756     -0.000000
  H      -0.506712      0.042825      0.000000
  O       1.287658      0.125158      0.000000
  H       1.627052     -0.372924     -0.790855
  H       1.627052     -0.372924      0.790855
6
Coordinates from ORCA-job 82_Waterdimer_B3LYP_3-21G_opt E -151.898817614405
  O      -1.455886     -0.144204     -0.000000
  H      -1.876484      0.759222     -0.000000
  H      -0.464455      0.042241     -0.000000
  O       1.249157      0.130485      0.000000
  H       1.587073     -0.367531     -0.791839
  H       1.587074     -0.367531      0.791839
6
Coordinates from ORCA-job 82_Waterdimer_B3LYP_3-21G_opt E -151.898844767448
  O      -1.463757     -0.142722     -0.000000
  H      -1.883366      0.760304     -0.000000
  H      -0.471658      0.042212     -0.000000
  O       1.258102      0.129922      0.000000
  H       1.593578     -0.368517     -0.792611
  H       1.593579     -0.368517      0.792611
6
Coordinates from ORCA-job 82_Waterdimer_B3LYP_3-21G_opt E -151.898866779682
  O      -1.465672     -0.142536     -0.000000
  H      -1.884207      0.760426     -0.000000
  H      -0.472892      0.041492      0.000000
  O       1.262333      0.130748      0.000000
  H       1.593458     -0.368724     -0.793458
  H       1.593458     -0.368724      0.793458
6
Coordinates from ORCA-job 82_Waterdimer_B3LYP_3-21G_opt E -151.898934669858
  O      -1.466119     -0.143380      0.000000
  H      -1.880755      0.760371      0.000000
  H      -0.471783      0.037388      0.000000
  O       1.272619      0.136368     -0.000000
  H       1.586259     -0.369033     -0.795786
  H       1.586258     -0.369033      0.795786
6
Coordinates from ORCA-job 82_Waterdimer_B3LYP_3-21G_opt E -151.899011496481
  O      -1.461316     -0.145662      0.000000
  H      -1.871005      0.760044      0.000000
  H      -0.465937      0.030805      0.000000
  O       1.280585      0.146416     -0.000000
  H       1.572076     -0.369460     -0.797067
  H       1.572075     -0.369460      0.797067
6
Coordinates from ORCA-job 82_Waterdimer_B3LYP_3-21G_opt E -151.899105099120
  O      -1.450182     -0.150177      0.000000
  H      -1.851675      0.759648      0.000000
  H      -0.454433      0.018897      0.000000
  O       1.289714      0.165934     -0.000000
  H       1.546529     -0.370810     -0.796193
  H       1.546526     -0.370810      0.796192
6
Coordinates from ORCA-job 82_Waterdimer_B3LYP_3-21G_opt E -151.899129203245
  O      -1.444642     -0.152084      0.000001
  H      -1.843684      0.759510      0.000000
  H      -0.449755      0.014809      0.000000
  O       1.290091      0.174034     -0.000001
  H       1.537235     -0.371794     -0.794251
  H       1.537232     -0.371793      0.794251
6
Coordinates from ORCA-job 82_Waterdimer_B3LYP_3-21G_opt E -151.899138966953
  O      -1.443436     -0.152183      0.000000
  H      -1.843566      0.759372      0.000000
  H      -0.449373      0.015829      0.000000
  O       1.286667      0.174265     -0.000001
  H       1.538094     -0.372301     -0.792970
  H       1.538092     -0.372301      0.792970
6
Coordinates from ORCA-job 82_Waterdimer_B3LYP_3-21G_opt E -151.899142251231
  O      -1.443981     -0.151835      0.000000
  H      -1.845559      0.759166      0.000000
  H      -0.450175      0.017657      0.000000
  O       1.284798      0.173215     -0.000000
  H       1.540698     -0.372760     -0.792257
  H       1.540696     -0.372760      0.792257
6
Coordinates from ORCA-job 82_Waterdimer_B3LYP_3-21G_opt E -151.899143765081
  O      -1.444167     -0.151681      0.000000
  H      -1.846762      0.758798      0.000000
  H      -0.450362      0.018879      0.000000
  O       1.284607      0.172938     -0.000000
  H       1.541582     -0.373127     -0.791962
  H       1.541580     -0.373127      0.791962
