6
Coordinates from ORCA-job 82_Waterdimer_B3LYP_3-21G_opt E -151.899143765081
  O          -1.44416701403500     -0.15168063348480      0.00000036008991
  H          -1.84676159350442      0.75879846172640      0.00000021103071
  H          -0.45036154788896      0.01887935107127      0.00000002771937
  O           1.28460676465447      0.17293823322378     -0.00000046350756
  H           1.54158178276839     -0.37312677169738     -0.79196240706968
  H           1.54157960800552     -0.37312664083927      0.79196227173725
